

(get-info :authors)
(get-info :name)
(get-info :error-behavior)

(set-option :print-success true)

(echo "hello")

(set-option :produce-models true)

(set-option :produce-models false)

(set-option :produce-proofs false)

(set-option :produce-proofs true)

(set-option :print-success false)

(set-option :produce-proofs true)

(set-logic QF_AUFLIA)

(set-logic AUFLIA)

(display (+ 10 20))

(set-option :produce-proofs true)

[

(echo "ok")

(set-info :source "unknown source")
(set-option :print-success true)
(set-info :source "unknown source")
(help help)
(help foo)
(help set-logic help)
(help set-logic foo help)
(exit)

